44
2 49 10 
2 61 19 
2 58 76 
3 63 108 106 
2 7 70 
3 22 26 3 
3 111 59 73 
2 82 52 
3 90 55 110 
2 115 25 
3 114 112 23 
3 102 100 17 
3 103 57 21 
3 86 91 104 
2 43 40 
3 118 15 51 
3 16 64 8 
3 66 120 96 
3 4 34 47 
3 36 29 13 
3 99 109 119 
3 6 87 72 
3 46 41 71 
3 27 33 30 
3 75 39 45 
3 54 18 93 
2 31 79 
3 84 105 42 
2 97 67 
3 48 101 69 
2 88 94 
3 117 92 44 
3 9 68 98 
3 107 5 116 
3 113 89 2 
3 81 38 56 
3 14 65 35 
3 78 80 60 
3 85 37 95 
3 24 1 62 
3 32 74 28 
3 53 83 50 
3 12 20 77 
1 11 
